TCS_Benchmarks/redos_fix/snort1_output_distinct_2566_2565_8_0.txt
((.|\n|\r)*)([^\n\r]*)
((.|\n|\r)*)([uU][sS][eE][rR]-[aA][gG][eE][nN][tT]:[^\n\r]*\.[eE][xX][eE])([^\n\r]*)